Ce  O 
 1.0000000000000000
    35.0000000000000000    0.0000000000000000    0.0000000000000000
     0.0000000000000000   35.0000000000000000    0.0000000000000000
     0.0000000000000000    0.0000000000000000   35.0000000000000000
  85 200
Cartesian
 17.4782522100907514 17.5188976640181018 27.9494968272529505
 17.5216977899094495 17.4811123359821643  7.0505031727467777
 22.8789230108815822 23.0049295832859073 17.5028315926560083
 23.0011634415123076 12.0899504127673936 17.5172096229812801
 11.9987965584876726 22.9100395872323404 17.4828303770189954
 12.1210569891183955 11.9950304167143251 17.4972084073442673
 22.9402071647578829 17.5554168886572342 22.9629696922105566
 22.9591684751591316 17.5354280322052389 12.0637910652021425
 12.0407715248410501 17.4645819677950271 22.9362989347981951
 12.0597328352423041 17.4445931113430284 12.0371203077897846
 17.4410946486727347 22.9778595443352600 22.9246777030078341
 17.4611104146598421 22.9545919098517786 12.0556573970926699
 17.5388395853401136 12.0454080901484808 22.9444026029071075
 17.5588553513272210 12.0221404556644984 12.0753822969922133
 27.9529047071695516 17.5879048721726647 17.5245077451373277
 17.6761669139484567  7.0220046093221544 17.5241567864771923
 17.3237830860517477 27.9779953906778509 17.4758832135230833
  7.0470952928304573 17.4121051278276013 17.4755322548629479
 20.1885643924015739 25.6259910094112655 17.4876439126449839
 14.8113856075986376  9.3739989905892269 17.5123960873552953
 25.4651647508044405 17.5695590228144134 20.2065238547870578
 25.4752569761805709 17.5559315400554041 14.8328395807831939
  9.5246930238193794 17.4440784599446133 20.1672004192168330
  9.5347852491955081 17.4304509771856004 14.7935161452129584
 22.8963802279253805 20.3051637016224937 20.2626944846145953
 22.9087716647313862 20.2943885704930729 14.7570580108107556
 12.0418214106794323 20.2168928857312054 20.2370498290767635
 12.0496987090703165 20.2080613256478117 14.7324967530636961
 22.8246194926770762 17.5372266895186755 17.5127181512429360
 12.1753605073229139 17.4627833104815871 17.4873218487573396
 20.2857637592367901  9.5339733554321775 17.5158708855960938
 14.7141862407631674 25.4660766445678846 17.4841691144041853
 20.1974452302350933 22.9871367561733635 20.2315003147022061
 20.2089179201538585 22.9740040485198413 14.7602899341777558
 20.2951307702208190 12.0865023752977905 20.2608062340242974
 20.3064425662803103 12.0767961780592792 14.7670510664331971
 20.2174671049776826 20.2945382156698493 22.9267480018953336
 20.2378971553474187 20.2715704163400794 12.0777380072827150
 20.2687236537816666 14.7759060116971028 22.9375067567878368
 20.2879315278475723 14.7533550921531322 12.0828251545800924
 14.7120184721526499 20.2466549078466329 22.9172248454199661
 14.7312263462187811 20.2241039883029394 12.0625432432124455
 20.2377378057970070 14.7862921815794017 17.5104968924970876
 14.7622121942029505 20.2137178184206263 17.4895431075031880
 14.8000650265790785 14.7520338533970801 17.4980312167691210
 20.2013047332397448 17.5049143291173834  9.5390637927387285
 14.7986452667604578 17.4950956708828791 25.4609662072612863
 20.1715185233166281 17.5368027916266129 25.4741831918800834
 14.8284314766835976 17.4632072083736496  9.5258468081199403
 20.2170313350048225 17.5249211427425422 20.2277489727859425
 20.2261771458447335 17.5142338781688842 14.7853360170652088
 14.7737728541554656 17.4857761218311332 20.2147039829350668
 14.7829186649953748 17.4750888572574716 14.7722910272143189
 17.4221411121330334 25.4880147960228065 14.8110930825588163
 17.5778088878669188  9.5119552039774167 20.1889469174412035
 17.4034392310134898 25.5013317908149908 20.1552685164302190
 17.5965107689864659  9.4986382091852413 14.8447714835695557
 17.4771884467639040 22.8730601666037465 17.4900028121273188
 17.5227615532363004 12.1268998333962088 17.5100371878729604
 17.4580915092707016 20.2069769355319835 25.4603506049538240
 17.4880799659890691 20.1753526827003000  9.5313465570877547
 17.5118700340108830 14.8246573172997280 25.4687034429122896
 17.5418584907292505 14.7930330644680375  9.5396993950462203
  9.5598724956611214 14.7459229970452306 17.4787023402067305
 25.4401175043388683 20.2540870029550248 17.5213376597935451
 20.1998849734211312 20.2479761466031931 17.5020087832311582
  9.5024859326147944 20.1242604517993229 17.4826305737785255
 25.4974540673851457 14.8757495482006945 17.5174094262217537
 17.4727672190415113 20.2411013991085582 20.2130978967356860
 17.4828700774645789 20.2298459065189391 14.7773505355246257
 17.5170799225353768 14.7701640934810854 20.2226894644753976
 17.5271827809584408 14.7589086008914521 14.7869421032643444
 17.4907249472072408 17.5113899251315743 22.8223550939496498
 17.5092250527929636 17.4886200748686917 12.1777049060504083
 17.4999750000001022 17.5000050000001330 17.5000200000001378
 14.7910320798461115 12.0259759514803939 20.2397500658222746
 14.6935074337198852 22.9232438219407868 20.2329889335670750
 12.0911383352682762 14.7056214295072110 20.2429819891895200
 22.9502212909298642 14.7919486743527031 20.2675432469365937
 14.7824828950225289 14.7054717843304239 12.0732619981049147
 14.7620528446527999 14.7284395836601796 22.9222719927172811
 14.8025047697648571 12.0128432438268646 14.7685396852978101
 14.7048192297793783 22.9135376247022720 14.7392337659759782
 12.1035297720745181 14.6948462983777759 14.7373455153856732
 22.9580985893207448 14.7831171142690785 14.7629901709235192
 18.8271861693571765 18.8255883831859556 10.7877455649043341
 18.8650678813177244 18.9051157377139205 21.5615237094113859
 18.9011052990129720 10.7864049136337918 18.8416790889055292
 18.8474608305455504 21.5893930076892460 18.8756407768441363
 10.7838434113037298 18.7855644101821611 18.8150697808479492
 21.5421321730124902 18.9060064853022638 18.8913171391817549
 10.6456094430811810 21.4654361305512111 18.8689116534036074
 21.5988502843541035 10.7322817684418297 18.9087702530572876
 21.5495492954831072 21.5967308208504569 18.8707942230187058
 10.6676698728205341 18.8431471813082929 21.4990932051358250
 21.5129570011281501 18.9062369196132103 10.6945647949687626
 21.5699652762736989 18.9035357412360945 21.5986741703876994
 18.9616696824031834 10.7116788390323059 21.5263457455339449
 18.8655384851159198 21.5090965534318848 10.6847875396090970
 18.8194536205815055 21.6115128491679798 21.5831461322347558
 21.5711603377775489 21.6498511812933501 21.6218046169927014
 18.8785878692611142 18.8877404091974626 13.4399217845608447
 18.8033048461512102 18.8527360470991781 24.2146485301700309
  8.1007475817187746 18.8039189334828514 16.0982616231210862
 19.0640358858470904  8.1515755126103944 16.1349614607113310
 18.8480032431762332 18.8671346243975293 16.1411194310932160
 18.8491396095455492 18.9094863200956063 26.8874484155277571
 18.9790724270279227 10.6940401780083221 13.5025155721299122
 18.8347626771335257 21.5944113700754521 13.4096407369820483
 18.8397888376099338 21.5361178248766478 24.3086449600867205
 10.6807122228426419 18.8318188246857403 13.4686071643158982
 21.5848766341622280 18.8872068386907728 13.4175787332621326
 21.4872582538693422 18.9339195394626323 24.3224020483301473
 21.5884379633773555 21.6304344857757016 13.3842912882312781
 10.7734111155294592 18.7801959223137516 16.1525475221629726
 21.5533420142936443 18.9017796724137810 16.1232101428479986
 18.9081868493870502 10.7959705347788208 16.1864380781244535
 18.8527269984075225 21.5779499925741476 16.1160993017968330
 10.6500871253509182 21.4629065557690808 16.0931384465787133
 21.6084145463003416 10.7272772393397418 16.1277290534685100
 21.5550861145599129 21.5914795460188849 16.1353879106921774
 18.9108517678708736 13.4385368249846273 18.8930414777495344
 18.7720810600067729 24.2607337696841867 18.8363844774277496
 18.9383894043478698 13.4733214905960956 10.6965595000970026
 18.8980792678053824 13.4307614057427891 21.5985433908989464
 18.7923230505956731 24.3346978821650559 21.5257760099436943
  8.1222390169760672 16.0489692294351727 18.8603152532851048
 18.9204033536376919 16.1063115360480253  8.1571632309049562
 18.8675295748807876 16.1508203437878244 18.8621380672646417
 18.6663771175864994 26.9390352073950581 18.8807876539754673
 10.7178009940626637 13.4427113331078623 18.8785035627808320
 21.6234923553686897 13.4469846668900495 18.8794083458826414
 21.4759461700768099 24.2835131000924349 18.8923463491658055
 10.7948646755514162 16.1229555434124769 18.8177045779803649
 21.5712506300047586 16.1447273378173790 18.8969123702799280
 21.6480886541775455 13.4292312833937899 21.6308538829469441
 18.8610061536343387 16.1610401006071598 10.8077456021025533
 18.8882900170109629 16.1335873571178290 21.5623994987949743
 10.6893266317371172 16.0733501953295992 21.5100712289870835
 21.5514552168861009 16.1345143539677807 10.6989912849567652
 21.5947208698366175 16.1748008061312589 21.6009297803989959
 18.9133939143849972 13.4135368318541559 13.4209987989147379
 18.9135183400543951 13.5023468691005597 24.3220414861678300
 18.8104508702661555 24.3187951267703113 13.4507074698272611
 18.9158660477365643 13.4392045704861580 16.1281534912146967
 18.7768828582525167 24.2416272338835874 16.1408141321252607
 18.9026680181769073 16.1168104788193496 13.4490500934194266
 18.8376745383666098 16.1887828868621781 24.2032145975316837
 21.6640487290579600 13.4127729981087107 13.3963729526958097
 10.7044396827416204 16.0607995640351326 13.4549413625454264
 21.6083681425798559 16.1583426556759022 13.4215283629178366
 21.5292079337352469 16.1615322027187958 24.3237505100935607
 10.7220937489945136 13.4401167063702118 16.0917669519766804
 21.6284546229430319 13.4426158877814643 16.1486838444109644
 21.4759367048932646 24.2795359950549319 16.0973908751158348
  8.1626467416877961 16.0371195165792386 16.0874117794925269
 18.8706676781244767 16.1473228164827667 16.1494519174174265
 18.8831732025821104 16.1410862642150121 26.8542299950834504
 18.6834011256683112 26.9019919460224202 16.0796658246801094
 10.8143648796265861 16.1190118517622594 16.1489522497936058
 21.5703843626074239 16.1409994995953561 16.1275079523301699
 13.4295656373925318 18.8590105004046613 18.8725320476698606
 24.1856351203734263 18.8809981482380067 18.8510877502066698
 13.4707420662644619 18.8384777972812216 10.6762394899061803
 13.3915818574200962 18.8416673443243603 21.5785116370821868
 24.2954803172583134 18.9392104359648847 21.5450986374548563
 13.5240132951069381 10.7204740049450713 18.9026491248844408
 13.3714953770569274 21.5573941122185495 18.8513561555890661
 24.2778262510054077 21.5598932936297984 18.9082730480233465
 16.3165488743318896  8.0979880539775646 18.9203741753199211
 16.1167767974178453 18.8589237357850052  8.1458100049168287
 16.1292823218757277 18.8526871835172507 18.8505880825826004
 26.8372832583121266 18.9628904834210275 18.9126282205077523
 16.2230671417474390 10.7584327661167372 18.8592258678747697
 16.0840839522633914 21.5608054295138487 18.8718865087853338
 16.1622754616335911 18.8112271131378392 10.7968254024685919
 16.0972819818232971 18.8831995211806678 21.5509899065806216
 13.3359012709419922 21.5873370018914059 21.6036670473044481
 16.1894991297338002 10.6812148732299654 21.5493325301730145
 16.0864316599455606 21.4976631308994683 10.6779585138321664
 16.0865560856152037 21.5864731681458615 21.5790412010853210
 13.4052291301633275 18.8252091938690072 13.3991102196012832
 13.4484947831138548 18.8654956460322367 24.3009987150432210
 24.3105933682628006 18.9266598046701695 13.4899687710134479
 13.4286993699952006 18.8552826621826384 16.1031276297200989
 24.2051353244488361 18.8770544565877856 16.1823354220199107
 13.3518613458224031 21.5708787166063303 13.3691861170533350
 16.1116599829892415 18.8664226428821848 13.4376405012050455
 16.1389438463658657 18.8389698993928540 24.1922943978977223
 16.2076269494042826 10.6653121178351995 13.4742639900565742
 16.1018707321948220 21.5692485942572247 13.4014966091010805
 16.0615605956520859 21.5266885094036553 24.3034404999029867
 16.3335728824137014  8.0609447926049249 16.1192523460245631
 16.1324204251194132 18.8491896562121930 16.1379019327356339
 16.0795466463622638 18.8936984639519920 26.8428767690953158
 26.8776909830238644 18.9510407705650934 16.1397247467151708
 13.5240038299231511 10.7164968999075825 16.1076936508344701
 13.3764576446310084 21.5530253331099573 16.1206316541173891
 24.2821190059372576 21.5572986668921338 16.1215364372191949
 16.2278689399931828 10.7393262303158714 16.1636555225722773
 16.0890982321290785 21.5614731750153972 16.1069985222504926
 13.4449638854401439 13.4085304539813954 18.8646520893081018
 13.3915354536996070 24.2727127606604931 18.8723109465315169
 24.3498428746490312 13.5371034442311675 18.9069015534215623
 13.4115120366225948 13.3695755142245787 21.6157487117687523
 13.4466079857065459 16.0982303275862364 18.8768298571520283
 24.2264988844707077 16.2198140776862658 18.8474924778372994
 16.1472230015926783 13.4220600074261220 18.8839406982034426
 16.0917631506129055 24.2040594652214622 18.8136019218755735
 16.1508103904544029 16.0905236799044111  8.1125515844724667
 16.1519467568237225 16.1328753756024845 18.8589205689068109
 15.9359141141531158 26.8484544873896382 18.8650785392886959
 26.8991624182813922 16.1960910665171625 18.9017783768789407
 16.1601611623902706 13.4638921751236182 10.6914150399133305
 16.1651873228666787 13.4055986299245866 21.5903992630182202
 16.0208775729720330 24.3059598219919373 21.4975244278701361
 13.5126917461308658 16.0660904605373851 10.6776379516698903
 13.4150733658379853 16.1128031613094933 21.5824612667379014
 24.3192177771575224 16.1681911753145258 21.5314328356841216
 16.1966451538489942 16.1472739529008393 10.7853614698304625
 16.1213621307390902 16.1122695908028035 21.5601182154389406
 13.4287896622221599 13.3501588187069125 13.3782353830073184
 13.4505007045169496 13.4032791791498056 16.1292457769815698
 13.4010997156458505 24.2677082315584229 16.0912697469427393
 24.3543205569189887 13.5345738694490443 16.1311283465966682
 13.4299847237265038 16.0964742587641716 13.4013658296123346
 13.4869929988720543 16.0937730803868071 24.3054752050312572
 24.3322601271796444 16.1568628186919732 13.5009467948641984
 16.1804963794186989 13.3884971508320341 13.4168938677655234
 16.1344115148842810 13.4909134465683884 24.3152724603909398
 16.0382803175967723 24.2883211609679392 13.4736942544660785
 16.1348821186824800 16.0948942622863456 13.4385162905886446
 16.1727638306430279 16.1744216168140582 24.2122644350959071
 16.1524891694546504 13.4106169923110201 16.1243992231561393
 16.0988447009869766 24.2136250863664984 16.1583609110944977
 13.4578178269879700 16.0940035146977536 16.1087228608182720
 24.2160665886964281 16.2144455898178528 16.1849702191523264
 16.1585379156593518 16.1270502787578032 16.1399954130071208
 16.1137383635393405 16.1250418930688681 26.8843419510995005
 15.9504229419131196 26.8805392777013985 16.1037258760468198
 26.8676374260566746 16.1848823662957884 16.1333817570827449
  8.1322725739434834 18.8151276337042290 18.8666582429172855
 19.0495270580870866  8.1194907222986501 18.8963141239532106
 18.8862116364606116 18.8749681069311492  8.1156580489004853
 18.8414120843406039 18.8729597212422107 18.8600445869929096
 10.3620723899857019 18.1258483367771639 24.5229000286782153
 10.4654824200699466 16.7592641674896896 24.6084839502001209
 24.5344575799302511 18.2407458325103278 10.3916060497999538
 24.6378676100142400 16.8741616632228499 10.4771899713218630
 10.3593579806935718 18.1051675148779943 10.4743733931289604
 10.4998386914070938 16.7452171451809377 10.3460733113829235
 24.5001013085928641 18.2547928548193283 24.6540166886173999
 24.6405820193063718 16.8948424851222718 24.5257166068711179
 18.0368276168061143 16.9932624577637661  4.7660238417195000
 17.0467400684065282 17.9585388495288569  4.7554810431051422
 17.9532099315934239 17.0414711504714056 30.2445189568948578
 16.9631223831938378 18.0067475422365000 30.2339761582804876
 16.9017925560945805 10.5084819295258036 24.6783653817567696
 18.2592611637730009 10.3788425481352267 24.5171710516672512
 16.7406888362269548 24.6211574518650380 10.4828889483327998
 18.0981574439053752 24.4915180704744451 10.3216946182432672
 16.9103131112473832 10.4928492197801972 10.3397320655527913
 18.2659897252439443 10.3485860993868233 10.5028803613533022
 16.7339602747562601 24.6514139006131785 24.4971796386469904
 18.0896368887528212 24.5071507802198063 24.6603279344472384
 10.3542167037592829 24.5242965662584389 16.8039015775148606
 10.3309044878937950 24.4948782712578712 18.1770044302894149
 24.6690555121064179 10.5051117287421150 16.8230355697106155
 24.6457432962409264 10.4756934337415579 18.1961384224851699
 10.4576776127135549 10.4028185524207846 18.1996898085734742
 10.3944563128751746 10.4539684053217012 16.8320704866326025
 24.6055236871248155 24.5459915946785259 18.1679695133674244
 24.5423023872864370 24.5971414475794390 16.8003501914265527
 13.3043547975712961  7.6275607707277624 16.8115199546301675
 13.3019775309226738  7.6155609011749901 18.1798022533957031
 21.6979724690772713 27.3844290988252617 16.8202377466043274
 21.6955952024286702 27.3724292292722282 18.1885200453698630
  4.7530423106060233 17.9012329417016112 17.9464977232290401
  4.7609656608607533 16.8936179367287522 16.9993668589030769
 30.2390343391392591 18.1063920632712652 18.0006731410969536
 30.2469576893939767 17.0987770582984062 17.0535422767709903
 17.5761035628294273 30.3212086517804558 17.0010700779079471
 16.7009603237019384 30.2333222136165887 18.0622160199376083
 18.2989896762982660  4.7666777863834300 16.9378239800624222
 17.4238464371707771  4.6787913482195460 17.9989699220920798
